data/mip_solutions/furman_sahinidis/reduced_transportation/12sp1_cplex.sol
Elapsed time: 0.0778028964996
Nodes explored: 0
Upper bound: 12.0
Lower bound: 12.0
y[0,0]=1
y[0,1]=1
y[1,1]=1
y[2,1]=1
y[2,2]=1
y[3,0]=1
y[4,0]=1
y[5,1]=1
y[6,0]=1
y[7,2]=1
y[8,0]=1
y[9,1]=1
q[0,1,1,2]=28992.816
q[0,2,1,2]=42683.868
q[0,3,1,4]=12080.34
q[0,4,1,4]=9299.532
q[0,4,1,9]=1170.096
q[0,5,1,9]=11677.662
q[0,6,1,6]=33019.596
q[0,7,1,7]=3563.527
q[0,7,1,8]=5295.389
q[0,8,1,9]=4429.458
q[0,9,0,10]=128.715
q[0,9,0,12]=13877.375
q[0,9,1,9]=2101.03
q[0,10,0,10]=20133.9
q[1,2,1,3]=17651.217
q[1,2,1,4]=9.26199999999
q[1,2,1,5]=5905.229
q[1,3,1,3]=6669.54
q[1,4,1,5]=5780.268
q[1,5,1,5]=6447.222
q[1,6,1,6]=18230.076
q[1,7,1,7]=4890.996
q[1,8,1,9]=2445.498
q[1,9,1,9]=7114.176
q[2,5,1,5]=1645.367
q[2,5,2,7]=2210.298
q[2,5,2,8]=1521.289
q[2,5,2,9]=4519.586
q[2,6,1,6]=16208.366
q[2,6,1,7]=2136.255
q[2,6,1,9]=3968.44
q[2,6,2,6]=5670.259
q[2,7,1,7]=7507.72
q[2,8,1,8]=3753.86
q[2,9,2,10]=13650.4
q[2,10,2,10]=3412.6
q[3,8,0,10]=6090.26
q[3,9,0,10]=22146.4
q[3,10,0,10]=8956.851
q[3,10,0,11]=7652.949
q[4,3,0,12]=1131.75
q[4,4,0,10]=980.85
q[4,5,0,11]=1094.025
q[4,6,0,11]=3093.45
q[4,7,0,10]=829.95
q[4,8,0,12]=414.975
q[4,9,0,10]=1509.0
q[4,10,0,11]=3772.5
q[5,4,1,5]=2356.77
q[5,5,1,5]=1722.255
q[6,6,0,10]=6522.772
q[6,7,0,10]=1750.012
q[6,8,0,10]=875.006
q[6,9,0,12]=3181.84
q[6,10,0,11]=7954.6
q[7,7,2,7]=832.28
q[7,7,2,10]=1192.468
q[7,8,2,9]=1012.374
q[8,9,0,10]=3412.12
q[8,10,0,10]=8530.3
q[9,0,1,0]=30438.383
q[9,0,1,1]=59231.448
q[9,0,1,2]=15525.17
q[9,0,1,3]=359.013
