data/mip_solutions/furman_sahinidis/reduced_transportation/12sp1_cplex.log

Log started (V12.6.3.0) Thu Jan 25 18:37:31 2018

New value for default parallel thread count: 1

Problem '/tmp/tmpXVpUDn.pyomo.lp' read.
Read time = 0.00 sec. (0.20 ticks)

Problem name         : /tmp/tmpXVpUDn.pyomo.lp
Objective sense      : Minimize
Variables            :    2762  [Nneg: 2731,  Binary: 30,  General Integer: 1]
Objective nonzeros   :       1
Linear constraints   :     201  [Less: 30,  Equal: 171]
  Nonzeros           :    8252
  RHS nonzeros       :      66

Variables            : Min LB: 0.000000         Max UB: 1.000000       
Objective nonzeros   : Min   : 1.000000         Max   : 1.000000       
Linear constraints   :
  Nonzeros           : Min   : 1.000000         Max   : 168319.4       
  RHS nonzeros       : Min   : 1.000000         Max   : 105554.0       
Tried aggregator 2 times.
MIP Presolve eliminated 107 rows and 2258 columns.
Aggregator did 2 substitutions.
Reduced MIP has 92 rows, 502 columns, and 1440 nonzeros.
Reduced MIP has 29 binaries, 0 generals, 0 SOSs, and 0 indicators.
Presolve time = 0.00 sec. (1.95 ticks)
Found incumbent of value 30.000000 after 0.00 sec. (3.55 ticks)
Probing time = 0.00 sec. (0.06 ticks)
Tried aggregator 1 time.
MIP Presolve eliminated 0 rows and 2 columns.
Reduced MIP has 92 rows, 500 columns, and 1438 nonzeros.
Reduced MIP has 27 binaries, 0 generals, 0 SOSs, and 0 indicators.
Presolve time = 0.00 sec. (0.49 ticks)
Probing time = 0.00 sec. (0.06 ticks)
Clique table members: 6.
MIP emphasis: balance optimality and feasibility.
MIP search method: dynamic search.
Parallel mode: none, using 1 thread.
Root relaxation solution time = 0.00 sec. (1.98 ticks)

        Nodes                                         Cuts/
   Node  Left     Objective  IInf  Best Integer    Best Bound    ItCnt     Gap

*     0+    0                           30.0000        3.0000            90.00%
      0     0       11.0361    10       30.0000       11.0361      277   63.21%
*     0+    0                           15.0000       11.0361            26.43%
      0     0       11.2590     5       15.0000      Cuts: 82      346   24.94%
*     0+    0                           14.0000       11.2590            19.58%
      0     0       11.4140    10       14.0000      Cuts: 47      433   18.47%
      0     0       12.0000     8       14.0000      Cuts: 74      513   14.29%
      0     0       12.0000     9       14.0000      Cuts: 55      566   14.29%
      0     0       12.0000    10       14.0000      Cuts: 34      619   14.29%
*     0+    0                           13.0000       12.0000             7.69%

Repeating presolve.
Tried aggregator 2 times.
MIP Presolve eliminated 9 rows and 126 columns.
MIP Presolve modified 84 coefficients.
Aggregator did 1 substitutions.
Reduced MIP has 82 rows, 373 columns, and 1036 nonzeros.
Reduced MIP has 19 binaries, 0 generals, 0 SOSs, and 0 indicators.
Presolve time = 0.00 sec. (0.63 ticks)
Probing time = 0.00 sec. (0.04 ticks)
Tried aggregator 1 time.
Reduced MIP has 82 rows, 373 columns, and 1036 nonzeros.
Reduced MIP has 19 binaries, 0 generals, 0 SOSs, and 0 indicators.
Presolve time = 0.00 sec. (0.37 ticks)
Represolve time = 0.00 sec. (1.84 ticks)
Probing time = 0.00 sec. (0.04 ticks)
Clique table members: 6.
MIP emphasis: balance optimality and feasibility.
MIP search method: dynamic search.
Parallel mode: none, using 1 thread.
Root relaxation solution time = 0.00 sec. (1.90 ticks)

        Nodes                                         Cuts/
   Node  Left     Objective  IInf  Best Integer    Best Bound    ItCnt     Gap

*     0+    0                           13.0000       12.0000             7.69%
      0     0       12.0000    11       13.0000       12.0000      855    7.69%
*     0+    0                           12.0000       12.0000             0.00%
      0     0        cutoff             12.0000       12.0000      855    0.00%
Elapsed time = 0.04 sec. (36.76 ticks, tree = 0.01 MB, solutions = 5)

Cover cuts applied:  4
Implied bound cuts applied:  14
Flow cuts applied:  4

Root node processing (before b&c):
  Real time             =    0.04 sec. (36.91 ticks)
Sequential b&c:
  Real time             =    0.00 sec. (0.00 ticks)
                          ------------
Total (root+branch&cut) =    0.04 sec. (36.91 ticks)

Solution pool: 5 solutions saved.

MIP - Integer optimal solution:  Objective =  1.2000000000e+01
Solution time =    0.04 sec.  Iterations = 855  Nodes = 0
Deterministic time = 36.92 ticks  (1014.95 ticks/sec)


Incumbent solution written to file '/tmp/tmpoRa2H_.cplex.sol'.
